CPXPARAM_Read_DataCheck                          1
Found incumbent of value 0.000000 after 0.00 sec. (0.04 ticks)
Tried aggregator 1 time.
MIP Presolve modified 1 coefficients.
Reduced MIP has 316 rows, 1505 columns, and 7515 nonzeros.
Reduced MIP has 1505 binaries, 0 generals, 0 SOSs, and 0 indicators.
Presolve time = 0.02 sec. (3.15 ticks)
Probing time = 0.00 sec. (1.63 ticks)
Tried aggregator 1 time.
Reduced MIP has 316 rows, 1505 columns, and 7515 nonzeros.
Reduced MIP has 1505 binaries, 0 generals, 0 SOSs, and 0 indicators.
Presolve time = 0.00 sec. (3.71 ticks)
Probing time = 0.00 sec. (1.63 ticks)
Clique table members: 1800.
MIP emphasis: balance optimality and feasibility.
MIP search method: dynamic search.
Parallel mode: deterministic, using up to 4 threads.
Root relaxation solution time = 0.00 sec. (7.25 ticks)

        Nodes                                         Cuts/
   Node  Left     Objective  IInf  Best Integer    Best Bound    ItCnt     Gap

*     0+    0                            0.0000     9291.0000              --- 
*     0+    0                          766.0000     9291.0000              --- 
      0     0     3161.3767     5      766.0000     3161.3767      437  312.71%
      0     0     2465.0947   225      766.0000     Cuts: 179      709  221.81%
*     0+    0                         1527.0000     2465.0947            61.43%
*     0+    0                         2104.0000     2465.0947            17.16%
      0     0        cutoff           2104.0000     2104.0000     1005    0.00%
Elapsed time = 0.16 sec. (130.95 ticks, tree = 0.01 MB, solutions = 4)

Clique cuts applied:  274
Cover cuts applied:  7
Implied bound cuts applied:  3
Mixed integer rounding cuts applied:  3
Zero-half cuts applied:  4

Root node processing (before b&c):
  Real time             =    0.16 sec. (131.08 ticks)
Parallel b&c, 4 threads:
  Real time             =    0.00 sec. (0.00 ticks)
  Sync time (average)   =    0.00 sec.
  Wait time (average)   =    0.00 sec.
                          ------------
Total (root+branch&cut) =    0.16 sec. (131.08 ticks)
